(set-option :produce-models true)
(set-logic QF_UF)
(declare-fun p64() Bool)
(declare-fun p10() Bool)
(declare-fun p46() Bool)
(declare-fun p33() Bool)
(declare-fun p15() Bool)
(declare-fun p25() Bool)
(declare-fun p19() Bool)
(declare-fun p12() Bool)
(declare-fun p40() Bool)
(declare-fun p39() Bool)
(declare-fun p62() Bool)
(declare-fun p52() Bool)
(declare-fun p61() Bool)
(declare-fun p66() Bool)
(declare-fun p63() Bool)
(declare-fun p36() Bool)
(declare-fun p34() Bool)
(declare-fun p14() Bool)
(declare-fun p59() Bool)
(declare-fun p71() Bool)
(declare-fun p53() Bool)
(declare-fun p50() Bool)
(declare-fun p75() Bool)
(declare-fun p7() Bool)
(declare-fun p20() Bool)
(declare-fun p48() Bool)
(declare-fun p16() Bool)
(declare-fun p3() Bool)
(declare-fun p26() Bool)
(declare-fun p74() Bool)
(declare-fun p73() Bool)
(declare-fun p9() Bool)
(declare-fun p1() Bool)
(declare-fun p29() Bool)
(declare-fun p2() Bool)
(declare-fun p21() Bool)
(declare-fun p79() Bool)
(declare-fun p69() Bool)
(declare-fun p13() Bool)
(declare-fun p4() Bool)
(declare-fun p65() Bool)
(declare-fun p60() Bool)
(declare-fun p18() Bool)
(declare-fun p67() Bool)
(declare-fun p54() Bool)
(declare-fun p35() Bool)
(declare-fun p23() Bool)
(declare-fun p6() Bool)
(declare-fun p72() Bool)
(declare-fun p8() Bool)
(declare-fun p11() Bool)
(declare-fun p45() Bool)
(declare-fun p17() Bool)
(declare-fun p76() Bool)
(declare-fun p68() Bool)
(declare-fun p43() Bool)
(declare-fun p38() Bool)
(declare-fun p41() Bool)
(declare-fun p31() Bool)
(declare-fun p56() Bool)
(declare-fun p78() Bool)
(declare-fun p24() Bool)
(declare-fun p37() Bool)
(declare-fun p77() Bool)
(declare-fun p44() Bool)
(declare-fun p5() Bool)
(declare-fun p30() Bool)
(declare-fun p32() Bool)
(declare-fun p27() Bool)
(declare-fun p58() Bool)
(declare-fun p22() Bool)
(declare-fun p70() Bool)
(declare-fun p0() Bool)
(declare-fun p57() Bool)
(declare-fun p51() Bool)
(declare-fun p55() Bool)
(declare-fun p28() Bool)
(declare-fun p47() Bool)
(declare-fun p42() Bool)
(declare-fun p49() Bool)
(assert
(and (or p64 p10 p10) (or (not p46) p33 (not p15)) (or p46 (not p25) (not p19)) (or p12 (not p40) (not p39)) (or (not p62) (not p52) p61) (or (not p66) (not p63) (not p36)) (or p63 p34 (not p14)) (or p59 (not p71) (not p25)) (or p53 (not p50) (not p75)) (or (not p7) p75 (not p20)) (or (not p50) p48 p14) (or p16 p3 (not p26)) (or p53 p74 p73) (or p9 (not p25) (not p73)) (or (not p1) (not p29) p2) (or p39 (not p2) p21) (or (not p79) p69 (not p62)) (or p13 (not p4) (not p65)) (or p65 p61 (not p65)) (or (not p65) p60 p16) (or (not p62) p62 p18) (or (not p14) (not p1) p21) (or p62 (not p71) p63) (or p67 (not p67) (not p54)) (or (not p26) p35 p39) (or p59 (not p3) (not p66)) (or p26 p7 p23) (or (not p6) (not p72) (not p8)) (or (not p36) (not p11) p45) (or p17 p8 p10) (or (not p75) (not p25) p76) (or (not p50) (not p68) (not p25)) (or (not p4) (not p46) (not p10)) (or (not p2) p54 p45) (or (not p43) (not p72) p33) (or p46 p7 (not p62)) (or (not p38) p60 (not p46)) (or (not p73) (not p41) (not p65)) (or (not p67) p60 (not p48)) (or p31 (not p40) (not p72)) (or p43 (not p45) (not p29)) (or p16 (not p21) p19) (or p56 (not p26) p31) (or p35 p2 (not p6)) (or (not p53) (not p16) p78) (or (not p24) (not p12) (not p65)) (or (not p79) (not p78) p37) (or (not p18) (not p31) p50) (or (not p2) (not p38) p56) (or (not p29) p52 p77) (or p20 p12 p20) (or p24 p44 (not p15)) (or p66 (not p5) p53) (or (not p76) p30 p72) (or p45 (not p13) p56) (or (not p43) p32 p20) (or (not p76) (not p17) p39) (or (not p9) p14 (not p1)) (or p37 p29 p21) (or (not p76) (not p17) (not p65)) (or p67 (not p62) (not p15)) (or (not p73) p27 p64) (or (not p11) (not p58) (not p22)) (or (not p37) (not p45) p20) (or p30 p11 p69) (or (not p32) (not p59) p43) (or (not p50) (not p63) (not p41)) (or p70 (not p26) p32) (or p61 (not p0) (not p57)) (or p32 (not p21) (not p12)) (or p44 p6 (not p31)) (or p36 p51 p1) (or p0 (not p31) (not p33)) (or p23 (not p27) (not p69)) (or (not p39) p52 p25) (or (not p8) (not p8) p7) (or (not p41) (not p63) (not p52)) (or (not p27) (not p75) (not p41)) (or (not p32) (not p55) p53) (or (not p8) (not p72) (not p54)) (or p75 (not p45) p28) (or p77 p9 p64) (or p14 (not p51) (not p15)) (or p45 (not p21) (not p14)) (or (not p34) p53 p64) (or (not p62) (not p51) p46) (or (not p47) p34 p44) (or p73 (not p76) p5) (or p10 p5 (not p71)) (or p59 p26 (not p25)) (or p38 p34 (not p74)) (or p44 p55 (not p37)) (or p5 (not p74) (not p33)) (or p57 p1 p13) (or (not p46) p16 p43) (or (not p10) (not p41) (not p44)) (or p75 p75 p39) (or (not p20) (not p76) p37) (or p47 p11 (not p7)) (or (not p3) p77 (not p56)) (or (not p62) p59 (not p76)) (or p50 p15 p16) (or p54 p60 p24) (or p55 p35 p3) (or p78 p52 (not p4)) (or (not p54) (not p56) p38) (or p42 (not p42) p40) (or (not p29) p48 (not p41)) (or p47 (not p6) p56) (or (not p44) (not p67) (not p30)) (or p34 (not p34) (not p78)) (or p39 (not p9) p44) (or (not p20) (not p38) p4) (or p56 p64 p5) (or (not p44) p76 (not p63)) (or p44 p52 (not p73)) (or p11 p58 p0) (or p35 (not p28) (not p20)) (or (not p48) (not p49) p73) (or p27 (not p3) p66) (or (not p0) (not p42) p51) (or p27 (not p51) p6) (or (not p43) p32 p2) (or (not p64) p54 (not p65)) (or p6 (not p42) p30) (or (not p77) (not p6) p45) (or p62 p56 (not p70)) (or (not p29) p3 p28) (or p55 p12 p61) (or (not p74) (not p5) (not p40)) (or (not p77) p40 p55) (or p63 p44 p17) (or p21 p26 p33) (or p27 p18 (not p59)) (or (not p45) (not p43) p6) (or p35 (not p53) p72) (or (not p18) (not p56) (not p64)) (or p58 p8 p51) (or (not p46) (not p72) p55) (or (not p11) p24 p25) (or (not p35) p79 (not p22)) (or (not p7) (not p79) (not p12)) (or p16 p61 (not p75)) (or p26 p15 (not p49)) (or (not p10) p29 p62) (or p27 (not p70) p24) (or (not p10) (not p52) (not p46)) (or p33 (not p5) (not p61)) (or (not p8) p65 (not p1)) (or (not p20) (not p5) p70) (or p76 (not p22) p24) (or p28 p34 p10) (or (not p9) (not p76) p39) (or (not p38) p37 (not p37)) (or p13 (not p36) (not p40)) (or (not p69) (not p25) p47) (or p18 (not p43) p52) (or (not p34) p21 p12) (or (not p72) (not p77) (not p36)) (or p75 (not p7) (not p49)) (or (not p14) (not p57) (not p66)) (or (not p62) p50 p47) (or p57 (not p50) (not p53)) (or (not p55) p3 (not p73)) (or (not p63) (not p72) p20) (or (not p56) p11 (not p40)) (or p45 (not p46) p38) (or p19 p36 (not p61)) (or (not p8) (not p71) (not p35)) (or (not p47) p71 p7) (or p79 p73 (not p68)) (or p49 (not p43) (not p1)) (or p47 p55 (not p10)) (or p24 (not p76) (not p79)) (or p6 (not p52) (not p57)) (or p13 p21 (not p17)) (or p8 (not p14) (not p5)) (or (not p66) (not p70) (not p70)) (or (not p67) p54 p26) (or p23 p21 (not p21)) (or (not p53) (not p38) p63) (or (not p31) (not p73) p32) (or p63 (not p30) (not p39)) (or (not p8) p52 p71) (or (not p19) (not p39) p48) (or p56 (not p44) (not p66)) (or p10 p74 p58) (or (not p54) (not p46) p60) (or (not p22) p41 (not p45)) (or p3 p75 (not p54)) (or p24 p44 p32) (or (not p46) (not p2) (not p70)) (or (not p60) (not p29) p18) (or p59 p47 p7) (or (not p78) p4 p77) (or (not p54) p29 (not p28)) (or p71 p2 (not p67)) (or (not p52) (not p37) p50) (or (not p66) (not p49) p52) (or (not p21) p44 p62) (or p76 p61 p25) (or p17 (not p33) (not p63)) (or p40 p10 p58) (or (not p41) p36 p79) (or p17 p25 (not p64)) (or p44 (not p6) p19) (or p31 (not p1) p35) (or (not p28) p40 (not p39)) (or p76 (not p69) (not p5)) (or (not p57) p44 (not p27)) (or p3 p48 (not p13)) (or p75 (not p46) (not p44)) (or (not p63) p36 p53) (or (not p0) (not p21) (not p46)) (or (not p21) (not p19) p66) (or (not p27) p5 p6) (or p72 p39 p9) (or (not p13) p52 (not p23)) (or p62 (not p13) p19) (or (not p0) (not p15) (not p21)) (or (not p13) p46 p70) (or (not p13) (not p35) (not p7)) (or (not p27) (not p48) p71) (or p4 p15 (not p73)) (or p44 (not p22) p57) (or p47 p57 (not p59)) (or (not p73) p60 (not p43)) (or (not p57) p8 (not p68)) (or p25 (not p20) p40) (or p44 (not p29) p55) (or p72 (not p32) p59) (or p21 (not p26) (not p70)) (or (not p25) p54 p60) (or p44 p35 p5) (or p21 (not p55) p53) (or (not p64) p0 (not p61)) (or (not p68) (not p65) (not p51)) (or p30 (not p41) p3) (or p73 p66 p38) (or p35 p67 (not p32)) (or p48 (not p62) p11) (or p44 p36 p33) (or p39 (not p44) p69) (or (not p72) p29 p0) (or p49 (not p72) p48) (or (not p49) p4 (not p12)) (or (not p26) (not p67) (not p52)) (or p17 p18 p3) (or p68 (not p56) (not p14)) (or (not p49) (not p26) p18) (or p4 (not p59) (not p79)) (or p31 p9 p5) (or p67 (not p25) (not p43)) (or (not p27) p11 p42) (or (not p27) p37 p53) (or (not p8) p11 p19) (or p11 (not p62) (not p68)) (or (not p52) p59 p7) (or p5 p20 (not p43)) (or (not p76) p46 (not p31)) (or (not p1) p56 p64) (or (not p59) (not p63) (not p65)) (or p75 p72 (not p55)) (or (not p13) p9 (not p66)) (or (not p60) (not p62) (not p10)) (or (not p76) (not p23) (not p8)) (or p51 p76 (not p1)) (or (not p2) (not p28) (not p73)) (or (not p53) (not p60) p32) (or p27 p16 (not p45)) (or (not p15) (not p2) (not p29)) (or p79 (not p50) p40) (or p65 p22 (not p49)) (or p39 (not p74) (not p22)) (or p75 (not p71) (not p44)) (or p59 p61 (not p12)) (or p39 p13 (not p28)) (or p49 p4 (not p70)) (or p75 (not p42) p58) (or p70 p71 p9) (or (not p37) p70 (not p44)) (or (not p47) p56 p63) (or p25 (not p78) (not p10)) (or p78 p8 (not p72)) (or (not p68) p4 p55) (or (not p57) (not p45) (not p45)) (or p37 (not p71) p21) (or p6 p49 (not p35)) (or (not p37) (not p19) (not p14)) (or (not p7) (not p48) p40) (or (not p31) (not p9) (not p25)) (or (not p27) (not p28) (not p7)) (or (not p12) (not p77) p7) (or (not p61) p23 p45) (or p8 (not p36) p21) (or (not p42) p6 p13) (or p1 (not p33) p15) (or (not p29) p59 (not p34)) (or (not p30) (not p68) p58) (or (not p74) (not p34) (not p14)) (or (not p62) (not p54) p51) (or (not p14) p39 p28) (or p13 p30 (not p69)) (or p11 p50 (not p74)) (or (not p59) (not p23) (not p22)) (or p70 (not p59) p70) (or (not p74) (not p29) p48) (or p48 (not p60) p45) (or (not p77) p16 (not p5)) (or p73 p78 (not p8)) (or (not p34) p50 p47) (or p7 (not p47) p5) (or (not p69) p77 p78) (or (not p21) (not p76) (not p41)) (or p57 p34 p64) (or p26 p25 (not p58)) (or (not p29) (not p27) p8) (or (not p52) (not p53) p74) (or (not p70) (not p66) (not p52)) (or p10 (not p14) (not p3)) (or p38 (not p0) (not p19)) (or p21 p7 (not p41)) (or (not p34) (not p70) p49) (or p49 (not p62) p74) (or (not p69) (not p13) p41) (or p79 p48 p39) (or p9 (not p32) p17) (or p41 (not p28) p69) (or p20 (not p11) p5) (or p10 p58 p79) (or (not p49) p60 (not p44)) (or (not p5) (not p47) (not p73)) (or (not p77) p58 p40) (or p36 p12 (not p11)) (or (not p79) p32 p41) (or p50 (not p14) p19) (or p74 p46 (not p3)))
)
(check-sat)
(get-model)
